NAME : iia20
COMMENT : 20 ciudades en circunferencia radio 1000
TYPE : TSP
DIMENSION: 20
EDGE_WEIGHT_TYPE : EUC_2D
NODE_COORD_SECTION
1 149.43741895944981 474.1261598694632
2 1800.4902367389273 400.65420591643726
3 1776.6081638204323 370.01606378618123
4 1401.9716179551483 84.34787262928262
5 1974.6822270010139 1223.5946250882262
6 642.1654039908435 66.21501302550178
7 276.7297918127099 1690.5651351963215
8 6.7561193327733235 883.9543472718264
9 453.3502737563391 162.63862233935663
10 1345.5262211130612 1938.4090955033034
11 860.2409328913689 1990.1855397656163
12 804.0219552362291 19.3917163461399
13 1205.8848018552349 21.423764663666816
14 1589.4494653365 192.19474635620588
15 1157.9540494703954 12.553536511521088
16 1973.5822891776188 1228.3364320463718
17 1743.0310115462025 1669.2569879206544
18 1008.0467853622665 0.03237590143271518
19 1067.6921418863683 1997.7062563334139
20 969.8075128715141 1999.5441029394333
EOF
